<?xml version = "1.0" standalone="yes"?>
<!-- This file has been generated by DOcplex version 2.23.222  -->
<CPLEXSolution version="1.0">
 <header
   problemName="CVRP"
   objectiveValue="6696.7"
  />
 <variables>
  <variable name="x_0_1" index="0" value="1.00000"/>
  <variable name="x_0_2" index="1" value="1.00000"/>
  <variable name="x_0_3" index="2" value="1.00000"/>
  <variable name="x_0_6" index="5" value="1.00000"/>
  <variable name="x_0_7" index="6" value="1.00000"/>
  <variable name="x_1_10" index="19" value="1.00000"/>
  <variable name="x_2_0" index="20" value="1.00000"/>
  <variable name="x_3_9" index="38" value="1.00000"/>
  <variable name="x_4_8" index="47" value="1.00000"/>
  <variable name="x_5_0" index="50" value="1.00000"/>
  <variable name="x_6_0" index="60" value="1.00000"/>
  <variable name="x_7_0" index="70" value="1.00000"/>
  <variable name="x_8_0" index="80" value="1.00000"/>
  <variable name="x_9_4" index="94" value="1.00000"/>
  <variable name="x_10_5" index="105" value="1.00000"/>
  <variable name="u_1" index="110" value="4.00000"/>
  <variable name="u_2" index="111" value="23.00000"/>
  <variable name="u_3" index="112" value="8.00000"/>
  <variable name="u_4" index="113" value="20.00000"/>
  <variable name="u_5" index="114" value="21.00000"/>
  <variable name="u_6" index="115" value="26.00000"/>
  <variable name="u_7" index="116" value="19.00000"/>
  <variable name="u_8" index="117" value="26.00000"/>
  <variable name="u_9" index="118" value="16.00000"/>
  <variable name="u_10" index="119" value="15.00000"/>
 </variables>
</CPLEXSolution>
